outputs/case_110.model.txt
document_preservation_period_years = 5
insured_email_obtained = False
insured_mobile_phone_obtained = False
insured_other_approved_contact_obtained = True
e_policy_issued = True
internal_operation_specification_executed = True
agent_fee_collection_record_preservation = True
agent_follow_laws_and_document_retention = True
contact_info_provided_to_insurer = True
agent_duty_of_care = True
document_preservation_scope_complete = True
fee_collection_record_saved = True
compliance_165_1_and_163_5 = True
agent_obtain_contact_info_for_e_policy = True
agent_exercise_duty_of_care = True
agent_fully_disclose_information = True
internal_operation_specification_include_elderly_protection = True
agent_follow_laws = True
internal_operation_specification_established = True
compliance_163_7 = True
penalty = False
agent_provide_professional_explanation = True
compliance_financial_business_management = True
fee_collection_proof_saved = True
agent_internal_operation_specification = True
agent_document_preservation = True
compliance_163_4_financial_business = True
agent_document_retention = True